; =========================================
; Z3 Solver Result
; =========================================

; STATUS: SAT

(set-logic QF_LIA)

(model
  (define-fun VM5Type () Int 341)
  (define-fun PriceProv2 () Int 116)
  (define-fun StorageProv5 () Int 2000)
  (define-fun C3_VM3 () Int 0)
  (define-fun C5_VM2 () Int 0)
  (define-fun VM2Type () Int 433)
  (define-fun C4_VM5 () Int 0)
  (define-fun C5_VM5 () Int 0)
  (define-fun C1_VM5 () Int 1)
  (define-fun StorageProv3 () Int 2000)
  (define-fun StorageProv4 () Int 2000)
  (define-fun C3_VM1 () Int 0)
  (define-fun VM4Type () Int 341)
  (define-fun PriceProv3 () Int 116)
  (define-fun PriceProv1 () Int 210)
  (define-fun ProcProv5 () Int 4)
  (define-fun C4_VM2 () Int 0)
  (define-fun C1_VM1 () Int 0)
  (define-fun PriceProv5 () Int 210)
  (define-fun StorageProv1 () Int 2000)
  (define-fun C2_VM5 () Int 0)
  (define-fun ProcProv3 () Int 2)
  (define-fun C2_VM4 () Int 0)
  (define-fun C1_VM2 () Int 0)
  (define-fun C2_VM3 () Int 0)
  (define-fun MemProv2 () Int 3750)
  (define-fun C3_VM5 () Int 0)
  (define-fun C1_VM3 () Int 0)
  (define-fun MemProv5 () Int 7500)
  (define-fun ProcProv4 () Int 4)
  (define-fun C2_VM1 () Int 0)
  (define-fun C2_VM2 () Int 1)
  (define-fun MemProv1 () Int 7500)
  (define-fun C5_VM3 () Int 0)
  (define-fun C5_VM4 () Int 0)
  (define-fun MemProv4 () Int 7500)
  (define-fun VM3Type () Int 433)
  (define-fun MemProv3 () Int 3750)
  (define-fun C4_VM1 () Int 0)
  (define-fun C3_VM4 () Int 1)
  (define-fun ProcProv1 () Int 4)
  (define-fun ProcProv2 () Int 2)
  (define-fun PriceProv4 () Int 210)
  (define-fun C3_VM2 () Int 0)
  (define-fun StorageProv2 () Int 2000)
  (define-fun C5_VM1 () Int 1)
  (define-fun C4_VM4 () Int 0)
  (define-fun C4_VM3 () Int 1)
  (define-fun VM1Type () Int 341)
  (define-fun C1_VM4 () Int 0)
)

; Optimized objective values
(define-fun objective1 () Int 862)

; =========================================
; Z3 Statistics (-st equivalent)
; =========================================

conflicts: 9014
decisions: 306733
propagations: 14169224
binary propagations: 13950750
restarts: 71
final checks: 93
added eqs: 752703
mk clause: 2533682
mk clause binary: 34530
del clause: 2531092
minimized lits: 1545658
num checks: 73
mk bool var: 82074
pb resolves: 174
pb conflicts: 176
pb propagations: 1600
pb predicates: 4
arith eq adapter: 10880
arith-lower: 5162280
arith-upper: 1298775
arith-conflicts: 1323
arith-bound-propagations-lp: 4130011
arith-diseq: 3190124
arith-make-feasible: 27224
arith-max-columns: 555
arith-max-rows: 17
arith-fixed-eqs: 2478
bv dynamic diseqs: 2509515
bv bit2core: 47923
bv->core eq: 89
solve-eqs-steps: 16
solve-eqs-elim-vars: 2
num allocs: 2441965964
rlimit count: 43078134
max memory: 43.69
memory: 38.65
time: 5.677

; End of SMT2LIB result file
